*SENSE:Minimize
NAME          MODEL
ROWS
 N  OBJ
 G  C0000000
 G  C0000001
 G  C0000002
 G  C0000003
 G  C0000004
 G  C0000005
 G  C0000006
 G  C0000007
 G  C0000008
 G  C0000009
 G  C0000010
 G  C0000011
 G  C0000012
 G  C0000013
 G  C0000014
 G  C0000015
 G  C0000016
COLUMNS
    X0000000  C0000000   1.172000000000e+02
    X0000000  OBJ        1.172000000000e+02
    X0000001  C0000001   8.765000000000e+01
    X0000001  OBJ        8.765000000000e+01
    X0000002  C0000002   1.056000000000e+02
    X0000002  OBJ        1.056000000000e+02
    X0000003  C0000003   1.242900000000e+02
    X0000003  OBJ        1.242900000000e+02
    X0000004  C0000004   1.132000000000e+02
    X0000004  OBJ        1.132000000000e+02
    X0000005  C0000005   8.135000000000e+01
    X0000005  OBJ        8.135000000000e+01
    X0000006  C0000006   9.318000000000e+01
    X0000006  OBJ        9.318000000000e+01
    X0000007  C0000007   8.600000000000e+01
    X0000007  OBJ        8.600000000000e+01
    X0000008  C0000008   1.150000000000e+02
    X0000008  OBJ        1.150000000000e+02
    X0000009  C0000009   1.044600000000e+02
    X0000009  OBJ        1.044600000000e+02
    X0000010  C0000010   1.040600000000e+02
    X0000010  OBJ        1.040600000000e+02
    X0000011  C0000011   1.099000000000e+02
    X0000011  OBJ        1.099000000000e+02
    X0000012  C0000012   1.116900000000e+02
    X0000012  OBJ        1.116900000000e+02
    X0000013  C0000013   1.366500000000e+02
    X0000013  OBJ        1.366500000000e+02
    X0000014  C0000014   1.045000000000e+02
    X0000014  OBJ        1.045000000000e+02
    X0000015  C0000015   1.508000000000e+02
    X0000015  OBJ        1.508000000000e+02
    X0000016  C0000016   1.520500000000e+02
    X0000016  OBJ        1.520500000000e+02
RHS
    RHS       C0000000   5.551144090514e-02
    RHS       C0000001   1.815160423524e-01
    RHS       C0000002   2.025008808424e-02
    RHS       C0000003   6.530670816382e-03
    RHS       C0000004   4.534665544174e-02
    RHS       C0000005   1.039366330585e-01
    RHS       C0000006   2.157001580275e-02
    RHS       C0000007   4.694135837015e-02
    RHS       C0000008   1.880147528067e-02
    RHS       C0000009   9.363873446393e-03
    RHS       C0000010   9.780710966919e-02
    RHS       C0000011   8.778030889893e-02
    RHS       C0000012   1.103758279088e-01
    RHS       C0000013   9.809924960613e-03
    RHS       C0000014   8.863904381244e-02
    RHS       C0000015   1.403134187106e-02
    RHS       C0000016   8.178818932061e-02
BOUNDS
ENDATA
